68 43 28 44 66 4 50 59 45 64 2 97 63 32 88 78 87 35 83 89 95 47 34 52 56 48 26 72 24 25 42 6 91 90 0 82 13 71 36 93 17 57 39 62 16 9 69 77 5 55 31 79 92 38 33 46 61 1 22 99 67 60 20 80 11 76 41 21 8 98 51 40 3 74 81 53 54 14 58 70 12 85 86 10 49 84 7 29 94 30 75 96 27 18 19 65 23 37 73 15 

